seed= 2052018 ;
N= 14 ;
M= 2 ;
F= 2 ;
K= 3 ;
T= 84 ;

p=[ 16 16 16 16 16 16 16 16 16 16 16 16 16 16 ];
r=[ 9 14 4 14 8 15 15 6 13 7 13 14 13 5 ];
d=[ 26 48 23 35 10 43 13 30 15 26 31 38 33 28 ];
s=[ 1 1 1 1 1 1 1 1 1 1 1 1 1 1 ];
w=[ 5 2 3 2 1 3 5 5 2 1 2 4 5 2 ];
f=[ 1 1 1 1 1 1 1 2 2 2 2 2 2 2 ];

e1=[ 10 10 10 10 10 10 10 10 10 10 10 10 10 10 10 10 10 10 10 10 10 10 10 10 10 10 10 10 10 10 10 10 10 10 10 10 10 10 10 10 10 10 8 8 8 8 8 8 8 8 8 8 8 8 8 8 8 8 8 8 8 8 8 8 8 8 8 8 8 8 8 8 8 8 8 8 8 8 8 8 8 8 8 8 ];
e2=[ 10 10 10 10 10 10 10 10 10 10 10 10 10 10 10 10 10 10 10 10 10 10 10 10 10 10 10 10 9 9 9 9 9 9 9 9 9 9 9 9 9 9 8 8 8 8 8 8 8 8 8 8 8 8 8 8 8 8 8 8 8 8 8 8 8 8 8 8 8 8 9 9 9 9 9 9 9 9 9 9 9 9 9 9 ];